c 
c G(k,n,p) graph
c graph gen seed     : 1354
c number of vertices : 25
c max number of edges: 500
c number of classes  : 2
c edge density       : 0.600000
c edge probability   : 1.200000
c data structure     : dense
c
c           Graph Stats
c number of vertices  : 25
c nonisolated vertices: 25
c number of edges     : 150
c edge density        : 0.500000
c max degree          : 15
c avg degree          : 12.00
c min degree          : 10
p col 25 150
e 1 2
e 1 3
e 1 7
e 1 8
e 1 10
e 1 11
e 1 12
e 1 15
e 1 16
e 1 17
e 1 20
e 1 21
e 1 22
e 1 24
e 2 3
e 2 7
e 2 8
e 2 10
e 2 11
e 2 12
e 2 15
e 2 16
e 2 17
e 2 20
e 2 21
e 2 22
e 2 24
e 3 7
e 3 8
e 3 10
e 3 11
e 3 12
e 3 15
e 3 16
e 3 17
e 3 20
e 3 21
e 3 22
e 3 24
e 4 5
e 4 6
e 4 9
e 4 13
e 4 14
e 4 18
e 4 19
e 4 23
e 4 25
e 5 6
e 5 9
e 5 13
e 5 14
e 5 18
e 5 19
e 5 23
e 5 25
e 6 9
e 6 13
e 6 14
e 6 18
e 6 19
e 6 23
e 6 25
e 7 8
e 7 10
e 7 11
e 7 12
e 7 15
e 7 16
e 7 17
e 7 20
e 7 21
e 7 22
e 7 24
e 8 10
e 8 11
e 8 12
e 8 15
e 8 16
e 8 17
e 8 20
e 8 21
e 8 22
e 8 24
e 9 13
e 9 14
e 9 18
e 9 19
e 9 23
e 9 25
e 10 11
e 10 12
e 10 15
e 10 16
e 10 17
e 10 20
e 10 21
e 10 22
e 10 24
e 11 12
e 11 15
e 11 16
e 11 17
e 11 20
e 11 21
e 11 22
e 11 24
e 12 15
e 12 16
e 12 17
e 12 20
e 12 21
e 12 22
e 12 24
e 13 14
e 13 18
e 13 19
e 13 23
e 13 25
e 14 18
e 14 19
e 14 23
e 14 25
e 15 16
e 15 17
e 15 20
e 15 21
e 15 22
e 15 24
e 16 17
e 16 20
e 16 21
e 16 22
e 16 24
e 17 20
e 17 21
e 17 22
e 17 24
e 18 19
e 18 23
e 18 25
e 19 23
e 19 25
e 20 21
e 20 22
e 20 24
e 21 22
e 21 24
e 22 24
e 23 25
